r = [
0,126,61,136,1,68,18,80,107,57,78,6,72,5,60,118,55,109,101,85,52,95,55,113,37,49,0
];
p = [
0,23,9,1,28,24,2,19,7,5,9,27,9,14,18,4,2,24,8,14,15,14,4,12,5,7,0
];
e = [
0,4,10,2,7,18,18,20,9,4,19,19,10,10,1,13,6,13,10,10,19,20,20,18,5,18,0
];
d = [
0,206,281,331,89,240,125,213,252,187,293,216,195,92,175,202,217,198,275,231,269,176,280,309,122,233,332
];
d_bar = [
0,218,286,332,103,252,126,223,256,190,298,230,200,99,184,204,218,210,279,238,277,183,282,315,125,237,332
];
w = [
0,0.333333333,2,2,0.5,1.5,18,2,2.25,1.333333333,3.8,1.357142857,2,1.428571429,0.111111111,6.5,6,1.083333333,2.5,1.428571429,2.375,2.857142857,10,3,1.666666667,4.5,0
];
